
Gurobi 9.5.0 (win64) logging started Tue Jun  7 18:32:35 2022

Set parameter LogFile to value "C:\Users\kmajd1\Documents\NNRepLayer_v2\demos\examples\tc7_walking_example\v2\repair_bound_constraint\repair_net/logs/opt_log_6_7_2022_18_32_20.log"
Gurobi Optimizer version 9.5.0 build v9.5.0rc5 (win64)
Thread count: 8 physical cores, 16 logical processors, using up to 16 threads
Optimize a model with 366 rows, 134 columns and 1175 nonzeros
Model fingerprint: 0x6956243d
Model has 101 quadratic objective terms
Coefficient statistics:
  Matrix range     [1e-03, 1e+01]
  Objective range  [2e-03, 4e-01]
  QObjective range [2e-02, 2e+00]
  Bounds range     [1e+01, 4e+01]
  RHS range        [8e-04, 1e+01]
Presolve removed 212 rows and 6 columns
Presolve time: 0.01s
Presolved: 154 rows, 128 columns, 951 nonzeros
Presolved model has 101 quadratic objective terms
Ordering time: 0.00s

Barrier statistics:
 Dense cols : 9
 AA' NZ     : 1.633e+03
 Factor NZ  : 2.385e+03
 Factor Ops : 4.930e+04 (less than 1 second per iteration)
 Threads    : 1

                  Objective                Residual
Iter       Primal          Dual         Primal    Dual     Compl     Time
   0   1.62179187e+07 -1.70189952e+07  5.65e+03 4.01e+02  8.65e+05     0s
   1   6.56092979e+06 -7.48871813e+06  3.50e+03 2.48e+02  5.82e+05     0s
   2   1.56771498e+04 -1.58704447e+06  1.82e+02 1.29e+01  4.68e+04     0s
   3   1.32781312e+02 -1.37789683e+06  1.82e-04 1.29e-05  4.45e+03     0s
   4   1.32510986e+02 -2.09437419e+03  1.12e-07 7.97e-09  7.18e+00     0s
   5   7.12182105e+01 -2.16572493e+02  1.27e-08 8.99e-10  9.28e-01     0s
   6   1.38589717e+01 -2.04512582e+01  1.42e-14 3.92e-14  1.11e-01     0s
   7   7.08038517e+00 -1.24165719e+00  1.31e-13 1.52e-14  2.68e-02     0s
   8   5.91143077e+00  3.64723711e+00  1.06e-12 4.13e-12  7.30e-03     0s
   9   5.74023375e+00  5.47034341e+00  7.08e-12 4.73e-13  8.71e-04     0s
  10   5.71457180e+00  5.69186631e+00  2.06e-11 1.36e-12  7.32e-05     0s
  11   5.71113558e+00  5.70931698e+00  1.20e-11 2.98e-12  5.87e-06     0s
  12   5.71077691e+00  5.71059115e+00  3.17e-11 3.85e-12  5.99e-07     0s
  13   5.71075410e+00  5.71075186e+00  5.98e-11 4.11e-12  7.22e-09     0s
  14   5.71075393e+00  5.71075393e+00  4.54e-10 1.49e-10  9.44e-12     0s

Barrier solved model in 14 iterations and 0.04 seconds (0.00 work units)
Optimal objective 5.71075393e+00

